p edge 83 99
e 1 2
e 2 3
e 3 12
e 3 15
e 3 36
e 3 20
e 3 65
e 4 5
e 4 6
e 4 7
e 5 8
e 6 8
e 7 71
e 8 9
e 8 10
e 8 11
e 9 16
e 9 17
e 10 63
e 11 72
e 13 14
e 14 19
e 14 20
e 16 17
e 17 18
e 18 62
e 18 66
e 18 20
e 20 59
e 20 61
e 20 65
e 21 22
e 21 23
e 21 24
e 22 38
e 22 39
e 22 40
e 22 41
e 22 42
e 22 43
e 24 54
e 24 44
e 25 26
e 25 27
e 26 65
e 27 50
e 27 51
e 27 65
e 27 56
e 27 68
e 27 69
e 28 29
e 28 30
e 28 31
e 29 32
e 30 33
e 30 34
e 31 36
e 32 37
e 33 35
e 34 78
e 35 36
e 37 81
e 38 44
e 41 46
e 42 45
e 43 80
e 43 81
e 45 46
e 45 47
e 45 48
e 45 49
e 47 51
e 51 52
e 52 55
e 52 58
e 53 54
e 55 56
e 55 57
e 59 60
e 61 62
e 61 63
e 62 64
e 67 68
e 67 69
e 69 70
e 71 72
e 72 74
e 72 77
e 73 74
e 73 75
e 75 76
e 75 79
e 75 83
e 76 77
e 78 79
e 79 80
e 79 82
e 82 83
l 7
